(set-logic QF_S)
(declare-fun var0 () String)
(assert (str.in.re var0 (re.++ (re.* (re.+ (str.to.re "0"))) (re.++ (re.union (re.* (str.to.re "111")) (re.* (str.to.re "2"))) (re.++ (re.* (re.union (str.to.re "33") (str.to.re "444"))) (re.++ (re.union (re.union (str.to.re "55") (str.to.re "666")) (re.* (str.to.re "77"))) (re.++ (re.* (re.union (str.to.re "88") (str.to.re "99"))) (re.++ (re.+ (re.* (str.to.re "a"))) (re.++ (re.* (re.+ (str.to.re "bbb"))) (re.++ (re.* (re.union (str.to.re "c") (str.to.re "dd"))) (re.++ (re.* (re.union (str.to.re "ee") (str.to.re "ff"))) (re.++ (re.* (re.+ (str.to.re "g"))) (re.++ (re.+ (re.union (str.to.re "hh") (str.to.re "i"))) (re.++ (re.union (re.* (str.to.re "jjj")) (re.+ (str.to.re "kkk"))) (re.++ (re.* (re.+ (str.to.re "lll"))) (re.++ (re.+ (re.union (str.to.re "mmm") (str.to.re "n"))) (re.++ (re.* (re.union (str.to.re "oo") (str.to.re "p"))) (re.++ (re.+ (re.* (str.to.re "qqq"))) (re.++ (re.* (re.* (str.to.re "r"))) (re.++ (re.* (re.* (str.to.re "ss"))) (re.++ (re.* (re.* (str.to.re "tt"))) (re.++ (re.+ (re.union (str.to.re "uu") (str.to.re "v"))) (re.++ (re.union (re.union (str.to.re "w") (str.to.re "x")) (re.union (str.to.re "yyy") (str.to.re "zzz"))) (re.++ (re.* (re.union (str.to.re "AAA") (str.to.re "BB"))) (re.++ (re.* (re.+ (str.to.re "CCC"))) (re.++ (re.union (re.+ (str.to.re "DD")) (re.union (str.to.re "E") (str.to.re "F"))) (re.++ (re.* (re.* (str.to.re "G"))) (re.++ (re.* (re.+ (str.to.re "H"))) (re.++ (re.* (re.union (str.to.re "III") (str.to.re "JJJ"))) (re.++ (re.* (re.union (str.to.re "K") (str.to.re "LLL"))) (re.++ (re.* (re.* (str.to.re "MM"))) (re.++ (re.* (re.union (str.to.re "NNN") (str.to.re "OOO"))) (re.++ (re.* (re.+ (str.to.re "PPP"))) (re.++ (re.+ (re.union (str.to.re "QQ") (str.to.re "RRR"))) (re.++ (re.union (re.union (str.to.re "S") (str.to.re "TTT")) (re.* (str.to.re "UUU"))) (re.++ (re.* (re.+ (str.to.re "VV"))) (re.++ (re.union (re.* (str.to.re "WWW")) (re.union (str.to.re "XXX") (str.to.re "Y"))) (re.++ (re.* (re.+ (str.to.re "Z"))) (re.++ (re.+ (re.union (str.to.re "!!") (str.to.re """"""))) (re.++ (re.union (re.* (str.to.re "###")) (re.+ (str.to.re "$"))) (re.++ (re.+ (re.* (str.to.re "%"))) (re.++ (re.+ (re.* (str.to.re "&&&"))) (re.++ (re.+ (re.* (str.to.re "''"))) (re.++ (re.+ (re.union (str.to.re "(((") (str.to.re ")"))) (re.++ (re.* (re.+ (str.to.re "**"))) (re.++ (re.union (re.* (str.to.re "+")) (re.* (str.to.re ",,"))) (re.++ (re.* (re.+ (str.to.re "--"))) (re.++ (re.* (re.union (str.to.re ".") (str.to.re "/"))) (re.* (re.+ (str.to.re "::")))))))))))))))))))))))))))))))))))))))))))))))))))
(check-sat)